NAME: tsp10_25
COMMENT: 10-tsp problem (Padberg/Rinaldi)
TYPE: TSP
DIMENSION: 10
EDGE_WEIGHT_TYPE : EUC_2D
NODE_COORD_SECTION
1 21 24
2 27 34
3 16 2
4 26 4
5 32 10
6 15 2
7 11 33
8 13 34
9 15 39
10 9 16
